;; Original file: phi_60.smt2
(set-logic HORN)
(declare-fun INV1 (Int Int Int Int Int Int Int Int Int Int ) Bool)
(declare-fun INV3 (Int Int Int ) Bool)
(declare-fun INV2 (Int Int Int Int Int Int Int Int Int Int ) Bool)
(declare-fun INV4 (Int Int Int ) Bool)


(assert (forall ((D Int)
         (B Int)
         (E Int)
         (C Int)
         (F Int)
         (G Int)
         (A Int)
         (H Int)
         (I Int)
         (J Int)
         (K Int)
         (L Int))
  (let ((a!1 (not (>= (+ (- F G) (- 1)) 0))))
  (let ((a!2 (and (= (+ D (- 1)) B)
                  (= (+ E 1) C)
                  a!1
                  (>= (+ (- A E) (- 1)) 0)
                  (INV1 F H G A D E I J K L)
                  (= I K)
                  (= J L))))
    (=> a!2 (INV3 A B C))))))
(assert (forall ((F Int)
         (D Int)
         (E Int)
         (A Int)
         (C Int)
         (K Int)
         (L Int)
         (B Int)
         (M Int)
         (G Int)
         (H Int)
         (I Int)
         (J Int))
  (let ((a!1 (not (>= (+ (- F D) (- 1)) 0)))
        (a!2 (not (>= (+ (- A C) (- 1)) 0))))
  (let ((a!3 (and a!1
                  (INV3 D E F)
                  a!2
                  (>= (+ (- K L) (- 1)) 0)
                  (INV1 A B C K M L G H I J)
                  (= G I)
                  (= H J))))
    (=> a!3 (INV1 A B C D E F G H I J))))))
(assert (forall ((D Int)
         (A Int)
         (E Int)
         (B Int)
         (C Int)
         (F Int)
         (G Int)
         (H Int)
         (I Int)
         (J Int)
         (K Int)
         (L Int)
         (M Int)
         (N Int)
         (O Int))
  (let ((a!1 (not (>= (+ (- F G) (- 1)) 0))))
  (let ((a!2 (and (= (+ D 1) A)
                  (= (+ E 1) B)
                  (>= (+ (- C D) (- 1)) 0)
                  (INV3 D E C)
                  a!1
                  (>= (+ (- H I) (- 1)) 0)
                  (INV1 F J G H K I L M N O)
                  (= L N)
                  (= M O))))
    (=> a!2 (INV3 A B C))))))
(assert (forall ((K Int)
         (B Int)
         (L Int)
         (C Int)
         (M Int)
         (E Int)
         (N Int)
         (F Int)
         (A Int)
         (D Int)
         (G Int)
         (H Int)
         (I Int)
         (J Int))
  (let ((a!1 (and (= (+ K (- 2) 1) B)
                  (= (+ L 1) C)
                  (= (+ M (- 1)) E)
                  (= (+ N 1) F)
                  (>= (+ (- A L) (- 1)) 0)
                  (>= (+ (- D N) (- 1)) 0)
                  (INV1 A K L D M N G H I J)
                  (= G I)
                  (= H J))))
    (=> a!1 (INV2 A B C D E F G H I J)))))
(assert (forall ((F Int)
         (D Int)
         (C Int)
         (A Int)
         (B Int)
         (E Int)
         (G Int)
         (H Int)
         (I Int)
         (J Int)
         (K Int)
         (L Int)
         (M Int)
         (N Int)
         (O Int)
         (P Int))
  (let ((a!1 (not (>= (+ (- F D) (- 1)) 0)))
        (a!2 (not (>= (+ (- C A) (- 1)) 0))))
  (let ((a!3 (and a!1
                  a!2
                  (INV2 A B C D E F G H I J)
                  (>= (+ (- K L) (- 1)) 0)
                  (>= (+ (- M N) (- 1)) 0)
                  (INV1 K O L M P N G H I J)
                  (= G I)
                  (= H J))))
    (=> a!3 (INV1 A B C D E F G H I J))))))
(assert (forall ((K Int)
         (D Int)
         (L Int)
         (E Int)
         (F Int)
         (C Int)
         (A Int)
         (B Int)
         (G Int)
         (H Int)
         (I Int)
         (J Int)
         (M Int)
         (N Int)
         (O Int)
         (P Int)
         (Q Int)
         (R Int))
  (let ((a!1 (not (>= (+ (- C A) (- 1)) 0))))
  (let ((a!2 (and (= (+ K 1) D)
                  (= (+ L 1) E)
                  (>= (+ (- F K) (- 1)) 0)
                  a!1
                  (INV2 A B C K L F G H I J)
                  (>= (+ (- M N) (- 1)) 0)
                  (>= (+ (- O P) (- 1)) 0)
                  (INV1 M Q N O R P G H I J)
                  (= G I)
                  (= H J))))
    (=> a!2 (INV2 A B C D E F G H I J))))))
(assert (forall ((K Int)
         (A Int)
         (L Int)
         (B Int)
         (M Int)
         (D Int)
         (N Int)
         (E Int)
         (F Int)
         (C Int)
         (G Int)
         (H Int)
         (I Int)
         (J Int)
         (O Int)
         (P Int)
         (Q Int)
         (R Int)
         (S Int)
         (T Int))
  (let ((a!1 (and (= (+ K 2 (- 1)) A)
                  (= (+ L 1) B)
                  (= (+ M 1) D)
                  (= (+ N 1) E)
                  (>= (+ (- F M) (- 1)) 0)
                  (>= (+ (- C K) (- 1)) 0)
                  (INV2 K L C M N F G H I J)
                  (>= (+ (- O P) (- 1)) 0)
                  (>= (+ (- Q R) (- 1)) 0)
                  (INV1 O S P Q T R G H I J)
                  (= G I)
                  (= H J))))
    (=> a!1 (INV2 A B C D E F G H I J)))))
(assert (forall ((K Int)
         (A Int)
         (L Int)
         (B Int)
         (F Int)
         (D Int)
         (C Int)
         (E Int)
         (G Int)
         (H Int)
         (I Int)
         (J Int)
         (M Int)
         (N Int)
         (O Int)
         (P Int)
         (Q Int)
         (R Int))
  (let ((a!1 (not (>= (+ (- F D) (- 1)) 0))))
  (let ((a!2 (and (= (+ K 2 (- 1)) A)
                  (= (+ L 1) B)
                  a!1
                  (>= (+ (- C K) (- 1)) 0)
                  (INV2 K L C D E F G H I J)
                  (>= (+ (- M N) (- 1)) 0)
                  (>= (+ (- O P) (- 1)) 0)
                  (INV1 M Q N O R P G H I J)
                  (= G I)
                  (= H J))))
    (=> a!2 (INV2 A B C D E F G H I J))))))
(assert (forall ((D Int)
         (A Int)
         (E Int)
         (B Int)
         (C Int)
         (F Int)
         (G Int)
         (H Int)
         (I Int)
         (J Int)
         (K Int)
         (L Int)
         (M Int)
         (N Int)
         (O Int))
  (let ((a!1 (not (>= (+ (- H I) (- 1)) 0))))
  (let ((a!2 (and (= (+ D 2 (- 1)) A)
                  (= (+ E 1) B)
                  (>= (+ (- C D) (- 1)) 0)
                  (INV4 D E C)
                  (>= (+ (- F G) (- 1)) 0)
                  a!1
                  (INV1 F J G H K I L M N O)
                  (= L N)
                  (= M O))))
    (=> a!2 (INV4 A B C))))))
(assert (forall ((C Int)
         (A Int)
         (B Int)
         (K Int)
         (L Int)
         (D Int)
         (F Int)
         (M Int)
         (E Int)
         (G Int)
         (H Int)
         (I Int)
         (J Int))
  (let ((a!1 (not (>= (+ (- C A) (- 1)) 0)))
        (a!2 (not (>= (+ (- D F) (- 1)) 0))))
  (let ((a!3 (and a!1
                  (INV4 A B C)
                  (>= (+ (- K L) (- 1)) 0)
                  a!2
                  (INV1 K M L D E F G H I J)
                  (= G I)
                  (= H J))))
    (=> a!3 (INV1 A B C D E F G H I J))))))
(assert (forall ((D Int)
         (B Int)
         (E Int)
         (C Int)
         (A Int)
         (F Int)
         (G Int)
         (H Int)
         (I Int)
         (J Int)
         (K Int)
         (L Int))
  (let ((a!1 (not (>= (+ (- F G) (- 1)) 0))))
  (let ((a!2 (and (= (+ D (- 2) 1) B)
                  (= (+ E 1) C)
                  (>= (+ (- A E) (- 1)) 0)
                  a!1
                  (INV1 A D E F H G I J K L)
                  (= I K)
                  (= J L))))
    (=> a!2 (INV4 A B C))))))
(assert (forall ((A Int)
         (B Int)
         (C Int)
         (D Int)
         (E Int)
         (F Int)
         (G Int)
         (H Int)
         (I Int)
         (J Int))
  (let ((a!1 (not (>= (+ (- C D) (- 1)) 0)))
        (a!2 (not (>= (+ (- E F) (- 1)) 0))))
    (=> (and (not (= A B)) a!1 a!2 (INV1 C A D E B F G H I J) (= G I) (= H J))
        false))))
(assert (forall ((C Int) (F Int) (A Int) (D Int) (B Int) (E Int))
  (let ((a!1 (and (= (* (- 1) C) 0) (= (* (- 1) F) 0) (= A D) (= B E))))
    (=> a!1 (INV1 A B C D E F A B D E)))))
(check-sat)
